DATASET = "thpack4";
INSTANCE = "069";

WIDTH = 233;
HEIGHT = 220;
LENGTH = 587;

NO_OF_SHAPES = 10;
size = [|
  91,50,32 |
  118,66,40 |
  75,69,32 |
  81,73,32 |
  97,69,33 |
  97,31,27 |
  57,54,29 |
  77,71,62 |
  116,84,27 |
  85,30,29 |
|];

verticality = [|
  0,1,1 |
  0,1,1 |
  0,0,1 |
  0,0,1 |
  0,0,1 |
  0,1,1 |
  1,1,1 |
  1,1,1 |
  0,0,1 |
  0,1,1 |
|];

box_count = [
  20,
  16,
  12,
  19,
  16,
  17,
  11,
  16,
  16,
  14,
];
